coords = array2d(1..28, 1..2, [367, 658, 618, 257, 485, 799, 475, 388, 561,
    740, 2, 651, 484, 900, 549, 594, 149, 299, 1000, 374, 999, 913,
    186, 385, 604, 913, 739, 772, 752, 869, 91, 479, 82, 652, 274,
    638, 321, 717, 990, 611, 916, 918, 544, 443, 578, 60, 978, 765,
    203, 484, 986, 838, 852, 406, 8, 550]);

n = 28;

